Traveling Salesman Problem/TSP_generados/Aleatorio1620390871_6.tsp
NAME: Aleatorio1620390871_6.tsp
COMMENT: Randomly generated scenario
TYPE: TSP
DIMENSION: 6
EDGE_WEIGHT_TYPE: ATT
NODE_COORD_SECTION
1 18.25 25.75
2 5.8 40.12
3 20.23 27.9
4 26.83 16.44
5 12.71 47.25
6 23.47 32.43
