Traveling Salesman Problem/TSP_generados/Aleatorio1620390871_6.opt.tour
NAME: Aleatorio1620390871_6.opt.tour
COMMENT: Optimal solution for Aleatorio1620390871_6 (78.71108932675445)
TYPE: TOUR
DIMENSION: 6
TOUR_SECTION
1 2 5 6 3 4
-1
EOF
